c Reduced graph for queen8_8gb generated by Cyril Grelier
p edge 64 728
e 1 2
e 1 4
e 1 5
e 1 13
e 1 16
e 1 17
e 1 19
e 1 20
e 1 21
e 1 23
e 1 25
e 1 26
e 1 29
e 1 31
e 1 33
e 1 36
e 1 38
e 1 41
e 1 45
e 1 46
e 1 49
e 1 50
e 1 53
e 1 56
e 1 58
e 1 63
e 1 64
e 2 4
e 2 5
e 2 6
e 2 7
e 2 8
e 2 10
e 2 14
e 2 16
e 2 17
e 2 18
e 2 20
e 2 23
e 2 24
e 2 25
e 2 26
e 2 34
e 2 39
e 2 40
e 2 45
e 2 49
e 2 58
e 2 59
e 2 60
e 2 64
e 3 6
e 3 7
e 3 8
e 3 9
e 3 12
e 3 15
e 3 18
e 3 20
e 3 27
e 3 29
e 3 31
e 3 32
e 3 39
e 3 43
e 3 45
e 3 47
e 3 53
e 3 54
e 3 56
e 3 58
e 3 59
e 4 6
e 4 7
e 4 8
e 4 10
e 4 19
e 4 21
e 4 23
e 4 25
e 4 33
e 4 36
e 4 39
e 4 42
e 4 45
e 4 46
e 4 47
e 4 50
e 4 51
e 4 52
e 4 53
e 4 58
e 4 59
e 4 60
e 4 62
e 5 8
e 5 9
e 5 11
e 5 14
e 5 17
e 5 20
e 5 26
e 5 28
e 5 29
e 5 30
e 5 31
e 5 33
e 5 34
e 5 41
e 5 42
e 5 43
e 5 44
e 5 45
e 5 51
e 5 55
e 5 60
e 5 62
e 5 64
e 6 10
e 6 14
e 6 15
e 6 16
e 6 18
e 6 19
e 6 21
e 6 23
e 6 27
e 6 42
e 6 45
e 6 47
e 6 49
e 6 51
e 6 53
e 6 54
e 6 59
e 6 62
e 7 8
e 7 10
e 7 11
e 7 12
e 7 13
e 7 20
e 7 25
e 7 26
e 7 27
e 7 29
e 7 30
e 7 31
e 7 39
e 7 41
e 7 43
e 7 47
e 7 54
e 7 57
e 7 58
e 7 59
e 7 60
e 7 62
e 8 10
e 8 13
e 8 19
e 8 25
e 8 27
e 8 28
e 8 31
e 8 32
e 8 34
e 8 35
e 8 38
e 8 39
e 8 44
e 8 47
e 8 52
e 8 55
e 8 60
e 8 62
e 9 16
e 9 18
e 9 20
e 9 22
e 9 25
e 9 26
e 9 28
e 9 30
e 9 32
e 9 36
e 9 39
e 9 41
e 9 43
e 9 48
e 9 49
e 9 51
e 9 52
e 9 56
e 9 58
e 9 60
e 9 62
e 10 11
e 10 17
e 10 19
e 10 23
e 10 25
e 10 29
e 10 32
e 10 37
e 10 39
e 10 40
e 10 50
e 10 52
e 10 53
e 10 55
e 10 60
e 10 61
e 11 13
e 11 14
e 11 20
e 11 29
e 11 30
e 11 32
e 11 33
e 11 34
e 11 35
e 11 37
e 11 40
e 11 42
e 11 50
e 11 51
e 11 53
e 11 54
e 11 55
e 11 62
e 12 17
e 12 21
e 12 22
e 12 28
e 12 29
e 12 31
e 12 33
e 12 34
e 12 37
e 12 38
e 12 43
e 12 46
e 12 49
e 12 50
e 12 51
e 12 58
e 12 59
e 12 61
e 12 64
e 13 19
e 13 20
e 13 23
e 13 27
e 13 31
e 13 32
e 13 34
e 13 35
e 13 38
e 13 41
e 13 42
e 13 43
e 13 49
e 13 50
e 13 52
e 13 54
e 13 56
e 13 62
e 13 64
e 14 15
e 14 16
e 14 22
e 14 29
e 14 30
e 14 33
e 14 34
e 14 36
e 14 42
e 14 46
e 14 49
e 14 56
e 14 57
e 14 59
e 14 60
e 14 61
e 14 63
e 15 18
e 15 22
e 15 26
e 15 27
e 15 31
e 15 35
e 15 37
e 15 39
e 15 42
e 15 45
e 15 46
e 15 48
e 15 53
e 15 54
e 15 56
e 15 57
e 15 60
e 15 63
e 16 21
e 16 22
e 16 24
e 16 25
e 16 26
e 16 29
e 16 32
e 16 33
e 16 38
e 16 39
e 16 41
e 16 44
e 16 49
e 16 52
e 16 54
e 16 58
e 16 59
e 16 61
e 16 62
e 16 63
e 17 20
e 17 21
e 17 22
e 17 23
e 17 26
e 17 29
e 17 33
e 17 35
e 17 36
e 17 40
e 17 43
e 17 44
e 17 45
e 17 49
e 17 52
e 17 57
e 17 61
e 17 64
e 18 23
e 18 24
e 18 25
e 18 27
e 18 28
e 18 30
e 18 34
e 18 36
e 18 40
e 18 45
e 18 48
e 18 49
e 18 53
e 18 54
e 18 58
e 18 63
e 19 20
e 19 24
e 19 27
e 19 33
e 19 34
e 19 35
e 19 36
e 19 38
e 19 46
e 19 47
e 19 48
e 19 52
e 19 53
e 19 55
e 19 58
e 19 59
e 19 63
e 20 24
e 20 26
e 20 39
e 20 45
e 20 47
e 20 48
e 20 54
e 20 55
e 20 56
e 20 59
e 20 62
e 20 63
e 20 64
e 21 23
e 21 25
e 21 29
e 21 34
e 21 35
e 21 36
e 21 38
e 21 40
e 21 42
e 21 43
e 21 44
e 21 47
e 21 50
e 21 51
e 21 57
e 21 62
e 21 63
e 22 24
e 22 25
e 22 26
e 22 32
e 22 33
e 22 45
e 22 46
e 22 49
e 22 52
e 22 56
e 22 57
e 22 58
e 22 60
e 22 62
e 22 63
e 23 24
e 23 29
e 23 31
e 23 34
e 23 40
e 23 41
e 23 42
e 23 47
e 23 49
e 23 50
e 23 51
e 23 52
e 23 56
e 23 58
e 23 61
e 23 62
e 24 25
e 24 33
e 24 34
e 24 39
e 24 40
e 24 41
e 24 44
e 24 45
e 24 47
e 24 48
e 24 54
e 24 55
e 24 58
e 24 59
e 24 61
e 24 63
e 25 28
e 25 29
e 25 30
e 25 36
e 25 38
e 25 39
e 25 45
e 25 48
e 25 49
e 25 60
e 25 63
e 26 27
e 26 30
e 26 31
e 26 32
e 26 35
e 26 37
e 26 39
e 26 41
e 26 42
e 26 45
e 26 47
e 26 48
e 26 52
e 26 57
e 26 58
e 26 62
e 26 64
e 27 30
e 27 34
e 27 35
e 27 38
e 27 41
e 27 45
e 27 47
e 27 52
e 27 53
e 27 54
e 27 55
e 27 57
e 28 30
e 28 31
e 28 36
e 28 37
e 28 38
e 28 44
e 28 46
e 28 48
e 28 49
e 28 51
e 28 55
e 28 57
e 28 61
e 28 62
e 28 64
e 29 30
e 29 31
e 29 33
e 29 34
e 29 38
e 29 42
e 29 43
e 29 52
e 29 58
e 29 59
e 29 61
e 29 63
e 30 33
e 30 34
e 30 36
e 30 41
e 30 42
e 30 44
e 30 47
e 30 48
e 30 49
e 30 56
e 30 57
e 30 64
e 31 35
e 31 37
e 31 39
e 31 41
e 31 42
e 31 43
e 31 44
e 31 48
e 31 49
e 31 50
e 31 55
e 31 56
e 31 58
e 31 59
e 31 62
e 32 37
e 32 40
e 32 42
e 32 43
e 32 47
e 32 50
e 32 52
e 32 53
e 32 55
e 32 58
e 32 62
e 32 64
e 33 34
e 33 36
e 33 39
e 33 41
e 33 42
e 33 44
e 33 46
e 33 49
e 33 53
e 33 54
e 33 58
e 33 61
e 34 35
e 34 38
e 34 40
e 34 42
e 34 50
e 34 52
e 34 58
e 35 36
e 35 37
e 35 38
e 35 39
e 35 40
e 35 42
e 35 43
e 35 44
e 35 48
e 35 51
e 35 52
e 35 57
e 36 40
e 36 43
e 36 44
e 36 46
e 36 48
e 36 49
e 36 53
e 36 57
e 36 58
e 36 61
e 37 38
e 37 39
e 37 40
e 37 42
e 37 46
e 37 48
e 37 50
e 37 51
e 37 53
e 37 55
e 37 61
e 37 64
e 38 40
e 38 46
e 38 51
e 38 52
e 38 61
e 38 63
e 38 64
e 39 41
e 39 42
e 39 44
e 39 48
e 39 54
e 39 56
e 39 60
e 39 61
e 40 43
e 40 44
e 40 50
e 40 53
e 40 55
e 40 57
e 40 58
e 41 43
e 41 44
e 41 47
e 41 49
e 41 50
e 41 51
e 41 54
e 41 56
e 41 57
e 41 60
e 41 61
e 42 43
e 42 47
e 42 48
e 42 51
e 42 62
e 42 64
e 43 44
e 43 51
e 43 57
e 43 58
e 43 59
e 43 60
e 43 64
e 44 54
e 44 55
e 44 56
e 44 57
e 44 61
e 44 62
e 44 64
e 45 50
e 45 52
e 45 53
e 45 54
e 45 59
e 45 64
e 46 51
e 46 53
e 46 56
e 46 57
e 46 58
e 46 60
e 46 61
e 46 63
e 46 64
e 47 48
e 47 51
e 47 55
e 47 57
e 47 59
e 47 62
e 47 63
e 48 49
e 48 54
e 48 55
e 48 59
e 48 60
e 48 63
e 49 50
e 49 56
e 49 59
e 50 52
e 50 53
e 50 55
e 50 56
e 50 59
e 51 60
e 51 61
e 51 62
e 51 64
e 52 58
e 52 59
e 52 61
e 52 62
e 53 54
e 53 55
e 53 58
e 54 60
e 54 61
e 54 62
e 55 59
e 55 62
e 55 63
e 56 57
e 56 60
e 56 63
e 56 64
e 57 60
e 57 63
e 58 59
e 58 62
e 59 63
e 60 63
e 61 64
